Running minizinc_bool.mzn
174msec

%%%mzn-stat: flatBoolVars=100
%%%mzn-stat: flatIntConstraints=154
%%%mzn-stat: flatIntVars=100
%%%mzn-stat: flatTime=0.0495073
%%%mzn-stat: method=satisfy
%%%mzn-stat: paths=0
%%%mzn-stat-end
N = 10
......Q...
....Q.....
.......Q..
.Q........
........Q.
..Q.......
.....Q....
...Q......
Q.........
.........Q
% time elapsed: 126msec
----------
%%%mzn-stat: failures=85
%%%mzn-stat: initTime=0.001
%%%mzn-stat: nodes=196
%%%mzn-stat: peakDepth=65
%%%mzn-stat: propagations=3404
%%%mzn-stat: propagators=154
%%%mzn-stat: restarts=0
%%%mzn-stat: solutions=1
%%%mzn-stat: solveTime=0.001
%%%mzn-stat: variables=200
%%%mzn-stat-end
Finished in 174msec.

---------------------------------------------

Running minizinc_bool.mzn
201msec

%%%mzn-stat: flatBoolVars=400
%%%mzn-stat: flatIntConstraints=514
%%%mzn-stat: flatIntVars=400
%%%mzn-stat: flatTime=0.0586046
%%%mzn-stat: method=satisfy
%%%mzn-stat: paths=0
%%%mzn-stat-end
N = 20
............Q.......
.........Q..........
......Q.............
........Q...........
.............Q......
...............Q....
...Q................
..............Q.....
.......Q............
.....Q..............
................Q...
..Q.................
....Q...............
...........Q........
.................Q..
..........Q.........
..................Q.
.Q..................
...................Q
Q...................
% time elapsed: 149msec
----------
%%%mzn-stat: failures=1845
%%%mzn-stat: initTime=0.006
%%%mzn-stat: nodes=3803
%%%mzn-stat: peakDepth=325
%%%mzn-stat: propagations=89335
%%%mzn-stat: propagators=514
%%%mzn-stat: restarts=0
%%%mzn-stat: solutions=1
%%%mzn-stat: solveTime=0.016
%%%mzn-stat: variables=800
%%%mzn-stat-end
Finished in 201msec.

---------------------------------------------

Running minizinc_bool.mzn
3s 771msec

%%%mzn-stat: flatBoolVars=2500
%%%mzn-stat: flatIntConstraints=2794
%%%mzn-stat: flatIntVars=2500
%%%mzn-stat: flatTime=0.116376
%%%mzn-stat: method=satisfy
%%%mzn-stat: paths=0
%%%mzn-stat-end
N = 50
.............................Q....................
......................Q...........................
...............Q..................................
..................................Q...............
..................Q...............................
.................................Q................
........................Q.........................
...........................Q......................
...............................Q..................
..........Q.......................................
.................Q................................
..............................Q...................
............................Q.....................
........Q.........................................
...................Q..............................
.......................................Q..........
.........................................Q........
.........Q........................................
..............Q...................................
................Q.................................
...........Q......................................
...........................................Q......
.....................................Q............
.............Q....................................
....................................Q.............
..........................................Q.......
...................................Q..............
.........................Q........................
......................................Q...........
........................................Q.........
.......................Q..........................
....................Q.............................
..........................Q.......................
................................Q.................
.....................Q............................
.......Q..........................................
............................................Q.....
......Q...........................................
............Q.....................................
.....Q............................................
..............................................Q...
....Q.............................................
.............................................Q....
...............................................Q..
...Q..............................................
.Q................................................
................................................Q.
..Q...............................................
Q.................................................
.................................................Q
% time elapsed: 3s 691msec
----------
%%%mzn-stat: failures=962983
%%%mzn-stat: initTime=0.031
%%%mzn-stat: nodes=1930816
%%%mzn-stat: peakDepth=827
%%%mzn-stat: propagations=72646982
%%%mzn-stat: propagators=2794
%%%mzn-stat: restarts=0
%%%mzn-stat: solutions=1
%%%mzn-stat: solveTime=3.427
%%%mzn-stat: variables=5000
%%%mzn-stat-end
Finished in 3s 771msec.
